100 8
755 516
561 197
397 941
626 287
574 690
360 476
323 591
554 716
398 528
567 575
794 351
824 642
217 475
265 593
417 688
815 599
920 911
305 814
527 327
371 474
865 819
581 404
625 134
892 823
810 557
203 559
546 100
897 934
582 149
825 391
422 434
521 614
755 382
191 545
747 393
831 834
263 750
364 754
567 598
270 961
382 688
431 723
498 133
787 427
162 543
295 909
328 801
765 165
333 948
305 732
397 609
760 266
421 882
603 316
554 499
301 836
332 506
328 236
659 555
510 240
749 643
798 205
111 524
211 123
249 873
481 651
435 407
376 925
304 525
738 338
815 908
870 807
359 807
805 935
502 681
640 286
196 54
598 120
790 217
337 513
311 760
894 463
908 964
454 486
494 486
416 498
816 493
584 543
169 141
552 400
129 501
144 507
677 573
893 783
505 277
403 485
563 213
452 104
636 303
783 167
